\ Model Multi-Period Capacitated Facility Location Problem with SLAs
\ LP format - for model browsing. Use MPS format to capture full model detail.
Minimize
  11175.87779068021 y[0] + 4541.665628429346 y[1] + 10812.43733653594 y[2]
   + 71.30848593266691 x[0,0,0] + 71.30848593266691 x[0,0,1]
   + 90.5568461808018 x[0,1,0] + 90.5568461808018 x[0,1,1]
   + 91.32647767803815 x[0,2,0] + 91.32647767803815 x[0,2,1]
   + 34.09481023716323 x[0,3,0] + 34.09481023716323 x[0,3,1]
   + 77.79425479945927 x[1,0,0] + 77.79425479945927 x[1,0,1]
   + 89.93279327971703 x[1,1,0] + 89.93279327971703 x[1,1,1]
   + 73.48676203255232 x[1,2,0] + 73.48676203255232 x[1,2,1]
   + 22.39959110197375 x[1,3,0] + 22.39959110197375 x[1,3,1]
   + 34.53460719467154 x[2,0,0] + 34.53460719467154 x[2,0,1]
   + 48.48874222354548 x[2,1,0] + 48.48874222354548 x[2,1,1]
   + 3.68565339649875 x[2,2,0] + 3.68565339649875 x[2,2,1]
   + 67.7691572285628 x[2,3,0] + 67.7691572285628 x[2,3,1]
Subject To
 demand_0_period_0: x[0,0,0] + x[1,0,0] + x[2,0,0] >= 1
 demand_1_period_0: x[0,1,0] + x[1,1,0] + x[2,1,0] >= 1
 demand_2_period_0: x[0,2,0] + x[1,2,0] + x[2,2,0] >= 1
 demand_3_period_0: x[0,3,0] + x[1,3,0] + x[2,3,0] >= 1
 demand_0_period_1: x[0,0,1] + x[1,0,1] + x[2,0,1] >= 1
 demand_1_period_1: x[0,1,1] + x[1,1,1] + x[2,1,1] >= 1
 demand_2_period_1: x[0,2,1] + x[1,2,1] + x[2,2,1] >= 1
 demand_3_period_1: x[0,3,1] + x[1,3,1] + x[2,3,1] >= 1
 capacity_0_period_0: - 1e+06 y[0] + x[0,0,0] + x[0,1,0] + x[0,2,0]
   + x[0,3,0] <= 0
 capacity_1_period_0: - 1e+06 y[1] + x[1,0,0] + x[1,1,0] + x[1,2,0]
   + x[1,3,0] <= 0
 capacity_2_period_0: - 1e+06 y[2] + x[2,0,0] + x[2,1,0] + x[2,2,0]
   + x[2,3,0] <= 0
 capacity_0_period_1: - 1e+06 y[0] + x[0,0,1] + x[0,1,1] + x[0,2,1]
   + x[0,3,1] <= 0
 capacity_1_period_1: - 1e+06 y[1] + x[1,0,1] + x[1,1,1] + x[1,2,1]
   + x[1,3,1] <= 0
 capacity_2_period_1: - 1e+06 y[2] + x[2,0,1] + x[2,1,1] + x[2,2,1]
   + x[2,3,1] <= 0
 sla_0_period_0: x[0,0,0] + x[1,0,0] + x[2,0,0] >= 0.8057976408050078
 sla_0_period_1: x[0,0,1] + x[1,0,1] + x[2,0,1] >= 0.8057976408050078
 sla_1_period_0: x[0,1,0] + x[1,1,0] + x[2,1,0] >= 0.9422567704927598
 sla_1_period_1: x[0,1,1] + x[1,1,1] + x[2,1,1] >= 0.9422567704927598
 sla_2_period_0: x[0,2,0] + x[1,2,0] + x[2,2,0] >= 0.9387291666595803
 sla_2_period_1: x[0,2,1] + x[1,2,1] + x[2,2,1] >= 0.9387291666595803
 sla_3_period_0: x[0,3,0] + x[1,3,0] + x[2,3,0] >= 0.5243830954592976
 sla_3_period_1: x[0,3,1] + x[1,3,1] + x[2,3,1] >= 0.5243830954592976
Bounds
Binaries
 y[0] y[1] y[2]
End
